\ Model OBJ_copy
\ LP format - for model browsing. Use MPS format to capture full model detail.
\ Signature: 0x5d43a0d37cd45d
Minimize
 
Subject To
 c_e_ActivePowerBalance(B24___02_25__04_00_00_)_:
   - 0.0202309110027206 i_squared_cond(B24_B28___02_25__04_00_00___243_AL1_39_ST1A_20_0_)
   - 0.1093286604692475 i_squared_cond(B24_B28___02_25__04_00_00__NAVY_4x50_SE)
   + p_flow(B22_B24___02_25__04_00_00___243_AL1_39_ST1A_20_0_)
   + p_flow(B22_B24___02_25__04_00_00__NAVY_4x50_SE)
   - p_flow(B24_B28___02_25__04_00_00___243_AL1_39_ST1A_20_0_)
   - p_flow(B24_B28___02_25__04_00_00__NAVY_4x50_SE) = 10.86941701
 c_e_ActivePowerBalance(B28___02_25__04_00_00_)_:
   p_flow(B22_B28___02_25__04_00_00___243_AL1_39_ST1A_20_0_)
   + p_flow(B22_B28___02_25__04_00_00__NAVY_4x50_SE)
   + p_flow(B24_B28___02_25__04_00_00___243_AL1_39_ST1A_20_0_)
   + p_flow(B24_B28___02_25__04_00_00__NAVY_4x50_SE) = 5.97929735
 c_e_ReactivePowerBalance(B24___02_25__04_00_00_)_:
   - 0.0544940363709645 i_squared_cond(B24_B28___02_25__04_00_00___243_AL1_39_ST1A_20_0_)
   - 0.0141343906837189 i_squared_cond(B24_B28___02_25__04_00_00__NAVY_4x50_SE)
   + 1e+06 n_cap(B24)
   + q_flow(B22_B24___02_25__04_00_00___243_AL1_39_ST1A_20_0_)
   + q_flow(B22_B24___02_25__04_00_00__NAVY_4x50_SE)
   - q_flow(B24_B28___02_25__04_00_00___243_AL1_39_ST1A_20_0_)
   - q_flow(B24_B28___02_25__04_00_00__NAVY_4x50_SE) = 7.570131198
 c_e_VoltageDrop(B22_B24___02_25__04_00_00_)_:
   - 7.9229139199999733e-04 i_squared_cond(B22_B24___02_25__04_00_00___243_AL1_39_ST1A_20_0_)
   - 0.00284956039999999 i_squared_cond(B22_B24___02_25__04_00_00__NAVY_4x50_SE)
   - 0.0195929979329351 p_flow(B22_B24___02_25__04_00_00___243_AL1_39_ST1A_20_0_)
   - 0.1058813524658613 p_flow(B22_B24___02_25__04_00_00__NAVY_4x50_SE)
   - 0.052775752007906 q_flow(B22_B24___02_25__04_00_00___243_AL1_39_ST1A_20_0_)
   - 0.0136887106770506 q_flow(B22_B24___02_25__04_00_00__NAVY_4x50_SE)
   + v_squared(B22___02_25__04_00_00_) - v_squared(B24___02_25__04_00_00_)
   - voltage_drop_term(B22_B24___02_25__04_00_00_) = 0
 c_e_VoltageDrop(B24_B28___02_25__04_00_00_)_:
   - 0.00337888976 i_squared_cond(B24_B28___02_25__04_00_00___243_AL1_39_ST1A_20_0_)
   - 0.012152537 i_squared_cond(B24_B28___02_25__04_00_00__NAVY_4x50_SE)
   - 0.0404618220054411 p_flow(B24_B28___02_25__04_00_00___243_AL1_39_ST1A_20_0_)
   - 0.2186573209384949 p_flow(B24_B28___02_25__04_00_00__NAVY_4x50_SE)
   - 0.1089880727419289 q_flow(B24_B28___02_25__04_00_00___243_AL1_39_ST1A_20_0_)
   - 0.0282687813674378 q_flow(B24_B28___02_25__04_00_00__NAVY_4x50_SE)
   + v_squared(B24___02_25__04_00_00_) - v_squared(B28___02_25__04_00_00_)
   - voltage_drop_term(B24_B28___02_25__04_00_00_) = 0
 c_u_VoltageMax(B22___02_25__04_00_00_)_: v_squared(B22___02_25__04_00_00_)
   <= 0.1936
 c_u_VoltageMax(B28___02_25__04_00_00_)_: v_squared(B28___02_25__04_00_00_)
   <= 0.1936
 c_u_VoltageDropTermPos(B24_B28___02_25__04_00_00_)_:
   voltage_drop_term(B24_B28___02_25__04_00_00_)
   + 0.08 y_pos(B24_B28___02_25__04_00_00_)
   + 0.08 y_neg(B24_B28___02_25__04_00_00_) <= 0.08
 c_u_VoltageDropTermNeg(B22_B24___02_25__04_00_00_)_:
   - voltage_drop_term(B22_B24___02_25__04_00_00_)
   + 0.08 y_pos(B22_B24___02_25__04_00_00_)
   + 0.08 y_neg(B22_B24___02_25__04_00_00_) <= 0.08
 c_u_CurrentLimitConductor(B22_B24___02_25__04_00_00___243_AL1_39_ST1A_20_0_)_:
   - 250000 z(B22_B24__243_AL1_39_ST1A_20_0_)
   + i_squared_cond(B22_B24___02_25__04_00_00___243_AL1_39_ST1A_20_0_)
   <= 0
 c_u_pFlowDir1(B22_B28___02_25__04_00_00___243_AL1_39_ST1A_20_0_)_:
   p_flow(B22_B28___02_25__04_00_00___243_AL1_39_ST1A_20_0_)
   - 220 y_pos(B22_B28___02_25__04_00_00_) <= 0
 c_u_pFlowDir1(B22_B28___02_25__04_00_00__NAVY_4x50_SE)_:
   p_flow(B22_B28___02_25__04_00_00__NAVY_4x50_SE)
   - 81.4 y_pos(B22_B28___02_25__04_00_00_) <= 0
 c_u_pFlowDir1(B24_B28___02_25__04_00_00__NAVY_4x50_SE)_:
   p_flow(B24_B28___02_25__04_00_00__NAVY_4x50_SE)
   - 81.4 y_pos(B24_B28___02_25__04_00_00_) <= 0
 c_u_pFlowDir2(B24_B28___02_25__04_00_00___243_AL1_39_ST1A_20_0_)_:
   - p_flow(B24_B28___02_25__04_00_00___243_AL1_39_ST1A_20_0_)
   - 220 y_neg(B24_B28___02_25__04_00_00_) <= 0
 c_u_qFlowDir1(B24_B28___02_25__04_00_00___243_AL1_39_ST1A_20_0_)_:
   q_flow(B24_B28___02_25__04_00_00___243_AL1_39_ST1A_20_0_)
   - 220 y_pos(B24_B28___02_25__04_00_00_)
   - 220 y_neg(B24_B28___02_25__04_00_00_) <= 0
 c_u_qFlowDir1(B24_B28___02_25__04_00_00__NAVY_4x50_SE)_:
   q_flow(B24_B28___02_25__04_00_00__NAVY_4x50_SE)
   - 81.4 y_pos(B24_B28___02_25__04_00_00_)
   - 81.4 y_neg(B24_B28___02_25__04_00_00_) <= 0
 c_u_qFlowDir2(B22_B24___02_25__04_00_00___243_AL1_39_ST1A_20_0_)_:
   - q_flow(B22_B24___02_25__04_00_00___243_AL1_39_ST1A_20_0_)
   - 220 y_pos(B22_B24___02_25__04_00_00_)
   - 220 y_neg(B22_B24___02_25__04_00_00_) <= 0
 c_u_qFlowDir2(B24_B28___02_25__04_00_00__NAVY_4x50_SE)_:
   - q_flow(B24_B28___02_25__04_00_00__NAVY_4x50_SE)
   - 81.4 y_pos(B24_B28___02_25__04_00_00_)
   - 81.4 y_neg(B24_B28___02_25__04_00_00_) <= 0
 c_u_pFlowCond1(B22_B24___02_25__04_00_00___243_AL1_39_ST1A_20_0_)_:
   - 220 z(B22_B24__243_AL1_39_ST1A_20_0_)
   + p_flow(B22_B24___02_25__04_00_00___243_AL1_39_ST1A_20_0_) <= 0
 c_u_pFlowCond2(B22_B24___02_25__04_00_00__NAVY_4x50_SE)_:
   - 81.4 z(B22_B24_NAVY_4x50_SE)
   - p_flow(B22_B24___02_25__04_00_00__NAVY_4x50_SE) <= 0
 c_u_qFlowCond1(B22_B24___02_25__04_00_00__NAVY_4x50_SE)_:
   - 81.4 z(B22_B24_NAVY_4x50_SE)
   + q_flow(B22_B24___02_25__04_00_00__NAVY_4x50_SE) <= 0
 c_e_TotalCurrent(B22_B24___02_25__04_00_00_)_:
   - i_squared_cond(B22_B24___02_25__04_00_00___243_AL1_39_ST1A_20_0_)
   - i_squared_cond(B22_B24___02_25__04_00_00__NAVY_4x50_SE)
   + i_squared(B22_B24___02_25__04_00_00_) = 0
 c_e_TotalCurrent(B24_B28___02_25__04_00_00_)_:
   - i_squared_cond(B24_B28___02_25__04_00_00___243_AL1_39_ST1A_20_0_)
   - i_squared_cond(B24_B28___02_25__04_00_00__NAVY_4x50_SE)
   + i_squared(B24_B28___02_25__04_00_00_) = 0
 c_e_TotalPFlow(B22_B24___02_25__04_00_00_)_:
   - p_flow(B22_B24___02_25__04_00_00___243_AL1_39_ST1A_20_0_)
   - p_flow(B22_B24___02_25__04_00_00__NAVY_4x50_SE)
   + p_flow_total(B22_B24___02_25__04_00_00_) = 0
 c_e_TotalPFlow(B24_B28___02_25__04_00_00_)_:
   - p_flow(B24_B28___02_25__04_00_00___243_AL1_39_ST1A_20_0_)
   - p_flow(B24_B28___02_25__04_00_00__NAVY_4x50_SE)
   + p_flow_total(B24_B28___02_25__04_00_00_) = 0
 c_e_TotalQFlow(B22_B24___02_25__04_00_00_)_:
   - q_flow(B22_B24___02_25__04_00_00___243_AL1_39_ST1A_20_0_)
   - q_flow(B22_B24___02_25__04_00_00__NAVY_4x50_SE)
   + q_flow_total(B22_B24___02_25__04_00_00_) = 0
 c_e_Radiality(__02_25__04_00_00_)_: y_pos(B22_B24___02_25__04_00_00_)
   + y_neg(B22_B24___02_25__04_00_00_) + y_pos(B22_B28___02_25__04_00_00_)
   + y_neg(B22_B28___02_25__04_00_00_) + y_pos(B24_B28___02_25__04_00_00_)
   + y_neg(B24_B28___02_25__04_00_00_) = 2
 c_u_OneConductorPerLine(B22_B24)_: z(B22_B24__243_AL1_39_ST1A_20_0_)
   + z(B22_B24_NAVY_4x50_SE) <= 1
 c_u_ApparentPowerCones(B22_B24___02_25__04_00_00_)_: [
   - v_squared(B24___02_25__04_00_00_) * i_squared(B22_B24___02_25__04_00_00_)
   + p_flow_total(B22_B24___02_25__04_00_00_) ^2
   + q_flow_total(B22_B24___02_25__04_00_00_) ^2 ] <= 0
 c_u_ApparentPowerCones(B24_B28___02_25__04_00_00_)_: [
   - v_squared(B28___02_25__04_00_00_) * i_squared(B24_B28___02_25__04_00_00_)
   + p_flow_total(B24_B28___02_25__04_00_00_) ^2
   + q_flow_total(B24_B28___02_25__04_00_00_) ^2 ] <= 0
Bounds
 i_squared_cond(B24_B28___02_25__04_00_00___243_AL1_39_ST1A_20_0_) free
 n_cap(B24) free
 p_flow(B22_B24___02_25__04_00_00___243_AL1_39_ST1A_20_0_) free
 p_flow(B22_B24___02_25__04_00_00__NAVY_4x50_SE) free
 p_flow(B22_B28___02_25__04_00_00___243_AL1_39_ST1A_20_0_) free
 p_flow(B22_B28___02_25__04_00_00__NAVY_4x50_SE) free
 p_flow(B24_B28___02_25__04_00_00___243_AL1_39_ST1A_20_0_) free
 p_flow(B24_B28___02_25__04_00_00__NAVY_4x50_SE) free
 q_flow(B22_B24___02_25__04_00_00___243_AL1_39_ST1A_20_0_) free
 q_flow(B22_B24___02_25__04_00_00__NAVY_4x50_SE) free
 q_flow(B24_B28___02_25__04_00_00___243_AL1_39_ST1A_20_0_) free
 q_flow(B24_B28___02_25__04_00_00__NAVY_4x50_SE) free
 v_squared(B22___02_25__04_00_00_) free
 voltage_drop_term(B22_B24___02_25__04_00_00_) free
 voltage_drop_term(B24_B28___02_25__04_00_00_) free
 i_squared(B22_B24___02_25__04_00_00_) free
 p_flow_total(B22_B24___02_25__04_00_00_) free
 q_flow_total(B22_B24___02_25__04_00_00_) free
 p_flow_total(B24_B28___02_25__04_00_00_) free
 q_flow_total(B24_B28___02_25__04_00_00_) free
Binaries
 z(B22_B24__243_AL1_39_ST1A_20_0_) z(B22_B24_NAVY_4x50_SE)
 y_pos(B22_B24___02_25__04_00_00_) y_neg(B22_B24___02_25__04_00_00_)
 y_pos(B22_B28___02_25__04_00_00_) y_neg(B22_B28___02_25__04_00_00_)
 y_pos(B24_B28___02_25__04_00_00_) y_neg(B24_B28___02_25__04_00_00_)
Generals
 n_cap(B24)
End
